
Gurobi 8.1.1 (linux64, Python) logging started Thu May 21 15:13:10 2020

Academic license - for non-commercial use only

Gurobi 8.1.1 (linux64, Python) logging started Thu May 21 15:15:46 2020

Academic license - for non-commercial use only

Gurobi 8.1.1 (linux64, Python) logging started Tue Aug 18 18:31:38 2020

Academic license - for non-commercial use only

Gurobi 8.1.1 (linux64, Python) logging started Tue Aug 18 19:47:02 2020

Academic license - for non-commercial use only

Gurobi 8.1.1 (linux64, Python) logging started Tue Aug 18 19:52:58 2020

Academic license - for non-commercial use only

Gurobi 8.1.1 (linux64, Python) logging started Tue Aug 18 20:01:23 2020

Academic license - for non-commercial use only

Gurobi 8.1.1 (linux64, Python) logging started Thu Aug 20 17:13:22 2020

Academic license - for non-commercial use only

Gurobi 8.1.1 (linux64, Python) logging started Thu Aug 20 17:34:17 2020

Academic license - for non-commercial use only

Gurobi 8.1.1 (linux64, Python) logging started Thu Aug 20 17:37:38 2020

Academic license - for non-commercial use only

Gurobi 8.1.1 (linux64, Python) logging started Thu Aug 20 17:41:30 2020

Academic license - for non-commercial use only

Gurobi 8.1.1 (linux64, Python) logging started Thu Aug 20 17:41:50 2020

Academic license - for non-commercial use only

Gurobi 8.1.1 (linux64, Python) logging started Thu Aug 20 17:42:49 2020

Academic license - for non-commercial use only

Gurobi 8.1.1 (linux64, Python) logging started Mon Aug 24 12:30:44 2020

Academic license - for non-commercial use only

Gurobi 8.1.1 (linux64, Python) logging started Mon Aug 24 12:35:56 2020

Academic license - for non-commercial use only

Gurobi 8.1.1 (linux64, Python) logging started Tue Aug 25 10:39:47 2020

Academic license - for non-commercial use only

Gurobi 8.1.1 (linux64, Python) logging started Tue Aug 25 11:20:38 2020

Academic license - for non-commercial use only

Gurobi 8.1.1 (linux64, Python) logging started Tue Aug 25 16:05:27 2020

Academic license - for non-commercial use only

Gurobi 8.1.1 (linux64, Python) logging started Tue Aug 25 19:33:21 2020

Academic license - for non-commercial use only

Gurobi 8.1.1 (linux64, Python) logging started Wed Aug 26 17:36:56 2020

Academic license - for non-commercial use only

Gurobi 8.1.1 (linux64, Python) logging started Thu Aug 27 19:00:24 2020

Academic license - for non-commercial use only

Gurobi 8.1.1 (linux64, Python) logging started Thu Aug 27 19:01:18 2020

Academic license - for non-commercial use only

Gurobi 8.1.1 (linux64, Python) logging started Thu Aug 27 19:01:42 2020

Academic license - for non-commercial use only

Gurobi 8.1.1 (linux64, Python) logging started Thu Aug 27 19:02:39 2020

Academic license - for non-commercial use only

Gurobi 8.1.1 (linux64, Python) logging started Thu Aug 27 19:08:51 2020

Academic license - for non-commercial use only

Gurobi 8.1.1 (linux64, Python) logging started Thu Aug 27 19:18:50 2020

Academic license - for non-commercial use only

Gurobi 8.1.1 (linux64, Python) logging started Fri Aug 28 14:41:41 2020

Academic license - for non-commercial use only
